NAME : toy.vrp
COMMENT : toy instance>
TYPE : CVRP
DIMENSION : 5
EDGE_WEIGHT_TYPE : EUC_2D
CAPACITY : 30
NODE_COORD_SECTION
1 38 46
2 59 46
3 96 42
4 47 61
5 26 15
DEMAND_SECTION
1 0
2 16
3 18
4 1
5 13
DEPOT_SECTION
1
-1
EOF
